#SOLVERNAME# PAJ_Gurobi_msd_sep
#SOLVER# Pajarito.PajaritoSolver(3, 3600.0, 1.0e-5, true, Gurobi.GurobiSolver(nothing, Any[(:OutputFlag, 1), (:Threads, 8), (:IntFeasTol, 1.0e-9), (:FeasibilityTol, 1.0e-8), (:MIPGap, 1.0e-5)]), Pajarito.UnsetSolver(), 0, false, true, Pajarito.UnsetSolver(), false, false, false, false, true, false, false, true, false, true, true, true, true, false, true, 10.0, true, true, false, true, 1.0e-12, 1.0e-8, false, "")
#INSTANCE# syn05m.cbf.gz
#TIMELIMIT# 3600.0

Problem dimensions:
       variables |      24
     constraints |      65
   nonzeros in A |     117

Cones summary:
Cone             | Count   | Min dim.  | Max dim. 
   Primal expon. |       3 |         3 |         3

Variable types:
      continuous |      19
         integer |       5

Transforming data...               0.00s

Building MIP model...              0.00s
Academic license - for non-commercial use only
Optimize a model with 71 rows, 24 columns and 132 nonzeros
Variable types: 19 continuous, 5 integer (0 binary)
Coefficient statistics:
  Matrix range     [2e-03, 3e+02]
  Objective range  [1e+00, 1e+00]
  Bounds range     [0e+00, 0e+00]
  RHS range        [1e+00, 2e+01]
Presolve removed 55 rows and 7 columns
Presolve time: 0.00s
Presolved: 16 rows, 17 columns, 40 nonzeros
Variable types: 13 continuous, 4 integer (4 binary)

Root relaxation: objective -1.281755e+03, 11 iterations, 0.00 seconds

    Nodes    |    Current Node    |     Objective Bounds      |     Work
 Expl Unexpl |  Obj  Depth IntInf | Incumbent    BestBd   Gap | It/Node Time

     0     0 -1281.7546    0    1          - -1281.7546      -     -    0s
     0     0 -1002.9721    0    1          - -1002.9721      -     -    0s
     0     0 -992.45110    0    1          - -992.45110      -     -    0s
     0     0 -881.51318    0    2          - -881.51318      -     -    0s
     0     0 -862.18453    0    2          - -862.18453      -     -    0s
     0     0 -853.24012    0    2          - -853.24012      -     -    0s
     0     0 -851.10378    0    2          - -851.10378      -     -    0s
     0     2 -851.10378    0    2          - -851.10378      -     -    0s
*    3     6               2    -837.7324009 -838.49377  0.09%   3.7    0s

Cutting planes:
  MIR: 2
  Flow cover: 4
  Lazy constraints: 12

Explored 7 nodes (48 simplex iterations) in 0.01 seconds
Thread count was 8 (of 16 available processors)

Solution count 1: -837.732 

Optimal solution found (tolerance 1.00e-05)
Best objective -8.377324008980e+02, best bound -8.377324008980e+02, gap 0.0000%

Starting MIP-solver-driven algorithm

MIP-solver-driven algorithm summary:
 - Status               =        Optimal
 - Best feasible        =  -8.377324e+02
 - Best bound           =  -8.377324e+02
 - Relative opt. gap    =      1.357e-16
 - Total time (s)       =       1.07e-02

Timers (s):
 - Setup                =   3.38e-04
 -- Transform data      =   1.07e-04
 -- Create conic data   =   0.00e+00
 -- Create MIP data     =   2.31e-04
 - Algorithm            =   1.03e-02
 -- Solve relaxation    =   0.00e+00
 -- Get relaxation cuts =   0.00e+00
 -- MIP solver driving  =   1.02e-02
 -- Solve subproblems   =   0.00e+00
 -- Get subproblem cuts =   0.00e+00
 -- Get separation cuts =   1.64e-04

Counters:
 - Lazy callbacks       =     7
 -- Integer repeats     =     0
 -- Conic subproblems   =     0
 -- Feasible solutions  =     2
 --- From subproblems   =     0
 --- In lazy callback   =     2
 - Heuristic callbacks  =     0
 -- Solutions passed    =     0

Solution returned by MIP solver

Rounds of full separation/subproblem cuts, and count of cuts added:
Cone             | Subp.  | Sep.   | Total  | Relax. | Viol. 
   Primal expon. |      0 |     12 |     12 |      0 |     12

Distance to feasibility (negative indicates strict feasibility):
Cone             | Variable  | Constraint
          Linear |        NA |  1.14e-13
   Primal expon. |        NA |  2.99e-11

Distance to integrality of integer/binary variables:
         integer |  0.00e+00

#STATUS# Optimal
#OBJVAL# -837.7324008979801
#OBJBOUND# -837.7324008979803
#NODECOUNT# 7
#TIMESOLVER# 0.010654926300048828
#TIMEALL# 0.011059999465942383
#SOLUTION# [0.0,5.754948654716059,0.0,1.4099832412739488e-14,2.8774743273580294,-0.0,1.0,0.0,-0.0,1.0,837.7324008979801,9.999999999999952,0.0,9.999999999999952,0.0,2.87747432735804,2.87747432735804,2.87747432735804,0.0,1.0325074129013956e-14,2.8774743273580294,2.991074055103127e-11,2.3978952727983667,-0.6666666666666572]
